(declare-fun var0 () String)
(declare-fun var1 () String)
(declare-fun var2 () String)
(declare-fun var3 () String)
(declare-fun var4 () String)
(declare-fun var5 () String)
(declare-fun var6 () String)
(declare-fun var7 () String)
(declare-fun var8 () String)
(declare-fun var9 () String)
(declare-fun var10 () String)
(declare-fun var11 () String)
(declare-fun var12 () String)
(declare-fun var13 () String)
(declare-fun var14 () String)
(declare-fun var15 () String)
(declare-fun var16 () String)
(declare-fun var17 () String)
(declare-fun var18 () String)
(declare-fun var19 () String)
(declare-fun var20 () String)
(declare-fun var21 () String)
(declare-fun var22 () String)
(declare-fun var23 () String)
(declare-fun var24 () String)
(declare-fun var25 () String)
(declare-fun var26 () String)
(declare-fun var27 () String)
(declare-fun var28 () String)
(declare-fun var29 () String)
(declare-fun var30 () String)
(declare-fun var31 () String)
(declare-fun var32 () String)
(declare-fun var33 () String)
(declare-fun var34 () String)
(declare-fun var35 () String)
(declare-fun var36 () String)
(declare-fun var37 () String)
(declare-fun var38 () String)
(declare-fun var39 () String)
(declare-fun var40 () String)
(declare-fun var41 () String)
(declare-fun var42 () String)
(declare-fun var43 () String)
(declare-fun var44 () String)
(declare-fun var45 () String)
(declare-fun var46 () String)
(declare-fun var47 () String)
(declare-fun var48 () String)
(declare-fun var49 () String)
(declare-fun var50 () String)
(declare-fun var51 () String)
(declare-fun var52 () String)
(declare-fun var53 () String)
(declare-fun var54 () String)
(declare-fun var55 () String)
(declare-fun var56 () String)
(declare-fun var57 () String)
(declare-fun var58 () String)
(declare-fun var59 () String)
(declare-fun var60 () String)
(assert (= var0 (Concat var1 var2)))
(assert (= var2 (Concat var3 var4)))
(assert (= var4 (Concat var5 var6)))
(assert (= var6 (Concat var7 var8)))
(assert (= var8 (Concat var9 var10)))
(assert (= var10 (Concat var11 var12)))
(assert (= var12 (Concat var13 var14)))
(assert (= var14 (Concat var15 var16)))
(assert (= var16 (Concat var17 var18)))
(assert (= var18 (Concat var19 var20)))
(assert (= var20 (Concat var21 var22)))
(assert (= var22 (Concat var23 var24)))
(assert (= var24 (Concat var25 var26)))
(assert (= var26 (Concat var27 var28)))
(assert (= var28 (Concat var29 var30)))
(assert (= var30 (Concat var31 var32)))
(assert (= var32 (Concat var33 var34)))
(assert (= var34 (Concat var35 var36)))
(assert (= var36 (Concat var37 var38)))
(assert (= var38 (Concat var39 var40)))
(assert (= var40 (Concat var41 var42)))
(assert (= var42 (Concat var43 var44)))
(assert (= var44 (Concat var45 var46)))
(assert (= var46 (Concat var47 var48)))
(assert (= var48 (Concat var49 var50)))
(assert (= var50 (Concat var51 var52)))
(assert (= var52 (Concat var53 var54)))
(assert (= var54 (Concat var55 var56)))
(assert (= var56 (Concat var57 var58)))
(assert (= var58 (Concat var59 var60)))
(assert (= var0 "solution"))
(assert (= "v" (CharAt var43 671)))
(assert (= "*" (CharAt var33 635)))
(assert (= "L" (CharAt var17 367)))
(assert (= "B" (CharAt var23 131)))
(assert (= "'" (CharAt var13 742)))
(assert (= "#" (CharAt var6 788)))
(assert (= ")" (CharAt var49 344)))
(assert (= "x" (CharAt var16 170)))
(assert (= "6" (CharAt var13 34)))
(assert (= "A" (CharAt var15 933)))
(assert (= "t" (CharAt var9 798)))
(assert (= "{" (CharAt var44 760)))
(assert (= "n" (CharAt var4 535)))
(assert (= "." (CharAt var52 882)))
(assert (= "~" (CharAt var27 730)))
(assert (= "S" (CharAt var5 519)))
(assert (= "s" (CharAt var2 320)))
(assert (= "{" (CharAt var6 859)))
(assert (= "y" (CharAt var30 318)))
(assert (= "S" (CharAt var49 192)))
(assert (= "f" (CharAt var19 403)))
(assert (= "P" (CharAt var20 885)))
(assert (= "F" (CharAt var12 724)))
(assert (= "#" (CharAt var34 697)))
(assert (= "S" (CharAt var21 359)))
(assert (= "}" (CharAt var0 210)))
(assert (= "V" (CharAt var50 489)))
(assert (= "7" (CharAt var26 783)))
(assert (= "m" (CharAt var52 627)))
(assert (= "+" (CharAt var4 674)))
(assert (= "V" (CharAt var51 273)))
(assert (= "E" (CharAt var28 804)))
(assert (= "J" (CharAt var31 686)))
(assert (= "+" (CharAt var35 124)))
(assert (= "R" (CharAt var32 754)))
(assert (= "\\" (CharAt var59 606)))
(assert (= "J" (CharAt var34 856)))
(assert (= "s" (CharAt var36 45)))
(assert (= "*" (CharAt var3 584)))
(assert (= "\\" (CharAt var16 936)))
(assert (= "s" (CharAt var19 358)))
(assert (= "_" (CharAt var33 895)))
(assert (= "^" (CharAt var1 800)))
(assert (= "-" (CharAt var4 473)))
(assert (= "e" (CharAt var12 534)))
(assert (= "[" (CharAt var10 385)))
(assert (= "V" (CharAt var5 187)))
(assert (= "Y" (CharAt var41 676)))
(assert (= "," (CharAt var41 506)))
(assert (= "H" (CharAt var38 319)))
(assert (= "x" (CharAt var37 553)))
(assert (= "B" (CharAt var57 694)))
(assert (= "<" (CharAt var21 627)))
(assert (= "{" (CharAt var16 352)))
(assert (= "\\" (CharAt var11 292)))
(assert (= "a" (CharAt var8 173)))
(assert (= "v" (CharAt var56 553)))
(assert (= "8" (CharAt var43 585)))
(assert (= "X" (CharAt var21 634)))
(assert (= "&" (CharAt var40 836)))
(assert (= "N" (CharAt var26 71)))
(assert (= "u" (CharAt var30 549)))
(assert (= "&" (CharAt var60 950)))
(assert (= "G" (CharAt var49 66)))
(assert (= "u" (CharAt var48 615)))
(assert (= "<" (CharAt var56 978)))
(assert (= "P" (CharAt var50 745)))
(assert (= "$" (CharAt var17 40)))
(assert (= "~" (CharAt var1 252)))
(assert (= "g" (CharAt var35 126)))
(assert (= "1" (CharAt var12 17)))
(assert (= "_" (CharAt var15 346)))
(assert (= "O" (CharAt var23 865)))
(assert (= "4" (CharAt var12 601)))
(assert (= "[" (CharAt var19 518)))
(assert (= "-" (CharAt var19 999)))
(assert (= "O" (CharAt var31 320)))
(assert (= "%" (CharAt var26 485)))
(assert (= "[" (CharAt var49 242)))
(assert (= "|" (CharAt var16 693)))
(assert (= "k" (CharAt var49 134)))
(assert (= "s" (CharAt var54 437)))
(assert (= "@" (CharAt var9 382)))
(assert (= "c" (CharAt var45 686)))
(assert (= "/" (CharAt var23 961)))
(assert (= "G" (CharAt var54 485)))
(assert (= "z" (CharAt var14 525)))
(assert (= "^" (CharAt var51 64)))
(assert (= "]" (CharAt var30 215)))
(assert (= "}" (CharAt var54 949)))
(assert (= "N" (CharAt var36 263)))
(assert (= "," (CharAt var37 685)))
(assert (= ">" (CharAt var42 321)))
(assert (= "e" (CharAt var48 511)))
(assert (= "c" (CharAt var41 801)))
(assert (= "1" (CharAt var6 756)))
(assert (= "M" (CharAt var3 772)))
(assert (= "r" (CharAt var5 66)))
(assert (= "H" (CharAt var59 703)))
(assert (= "&" (CharAt var37 914)))
(assert (= "i" (CharAt var55 690)))
(assert (= "<" (CharAt var12 46)))
(assert (= "[" (CharAt var43 781)))
(assert (= "2" (CharAt var47 977)))
(assert (= "i" (CharAt var3 604)))
(assert (= "(" (CharAt var39 542)))
(assert (= "g" (CharAt var2 206)))
(assert (= "M" (CharAt var16 114)))
(assert (= "d" (CharAt var15 883)))
(assert (= "v" (CharAt var31 33)))
(assert (= "]" (CharAt var50 551)))
(assert (= "E" (CharAt var27 972)))
(assert (= "|" (CharAt var4 707)))
(assert (= "5" (CharAt var58 684)))
(assert (= "B" (CharAt var11 726)))
(assert (= "}" (CharAt var23 699)))
(assert (= "V" (CharAt var58 270)))
(assert (= "C" (CharAt var5 555)))
(assert (= "l" (CharAt var57 715)))
(assert (= "(" (CharAt var60 302)))
(assert (= "," (CharAt var23 955)))
(assert (= "^" (CharAt var34 154)))
(assert (= "i" (CharAt var42 646)))
(assert (= ">" (CharAt var30 292)))
(assert (= "l" (CharAt var7 910)))
(assert (= "t" (CharAt var26 772)))
(assert (= "x" (CharAt var54 689)))
(assert (= "e" (CharAt var0 407)))
(assert (= "j" (CharAt var30 870)))
(assert (= "d" (CharAt var1 486)))
(assert (= "k" (CharAt var19 22)))
(assert (= "," (CharAt var57 205)))
(assert (= "H" (CharAt var1 100)))
(assert (= "s" (CharAt var33 749)))
(assert (= "5" (CharAt var24 893)))
(assert (= "r" (CharAt var6 256)))
(assert (= "x" (CharAt var51 562)))
(assert (= "X" (CharAt var11 903)))
(assert (= "B" (CharAt var49 127)))
(assert (= "/" (CharAt var28 46)))
(assert (= "Z" (CharAt var54 781)))
(assert (= "~" (CharAt var45 896)))
(assert (= "U" (CharAt var58 258)))
(assert (= "V" (CharAt var60 155)))
(assert (= "h" (CharAt var26 884)))
(assert (= "\"" (CharAt var57 101)))
(assert (= "=" (CharAt var15 934)))
(assert (= "]" (CharAt var19 772)))
(assert (= "X" (CharAt var60 364)))
(assert (= "z" (CharAt var15 795)))
(assert (= ":" (CharAt var59 128)))
(assert (= "]" (CharAt var57 451)))
(assert (= "A" (CharAt var56 95)))
(assert (= "D" (CharAt var42 878)))
(assert (= "<" (CharAt var39 749)))
(assert (= "#" (CharAt var45 898)))
(assert (= "R" (CharAt var44 401)))
(assert (= "l" (CharAt var2 86)))
(assert (= "P" (CharAt var53 17)))
(assert (= "*" (CharAt var12 35)))
(assert (= "|" (CharAt var38 10)))
(assert (= "9" (CharAt var19 276)))
(assert (= "0" (CharAt var46 908)))
(assert (= "e" (CharAt var22 277)))
(assert (= "I" (CharAt var18 384)))
(assert (= "z" (CharAt var4 976)))
(assert (= "U" (CharAt var46 305)))
(assert (= "M" (CharAt var17 573)))
(assert (= "z" (CharAt var53 35)))
(assert (= "~" (CharAt var53 800)))
(assert (= "3" (CharAt var15 279)))
(assert (= "t" (CharAt var45 515)))
(assert (= "@" (CharAt var21 433)))
(assert (= "t" (CharAt var37 579)))
(assert (= "Q" (CharAt var19 56)))
(assert (= "N" (CharAt var42 437)))
(assert (= "H" (CharAt var50 319)))
(assert (= "b" (CharAt var18 411)))
(assert (= "#" (CharAt var55 796)))
(assert (= "G" (CharAt var51 34)))
(assert (= "^" (CharAt var27 203)))
(assert (= "@" (CharAt var37 418)))
(assert (= "d" (CharAt var17 451)))
(assert (= "+" (CharAt var8 848)))
(assert (= "h" (CharAt var30 440)))
(assert (= "j" (CharAt var28 992)))
(assert (= "^" (CharAt var55 7)))
(assert (= "\\" (CharAt var36 921)))
(assert (= "Y" (CharAt var38 629)))
(assert (= "A" (CharAt var29 299)))
(assert (= "m" (CharAt var60 961)))
(assert (= "9" (CharAt var57 28)))
(assert (= "i" (CharAt var58 329)))
(assert (= "%" (CharAt var23 25)))
(assert (= ")" (CharAt var48 285)))
(assert (= ":" (CharAt var22 46)))
(assert (= "E" (CharAt var23 112)))
(assert (= "o" (CharAt var15 636)))
(assert (= "<" (CharAt var56 178)))
(assert (= "X" (CharAt var15 705)))
(assert (= "w" (CharAt var24 587)))
(assert (= "I" (CharAt var20 149)))
(assert (= "," (CharAt var17 962)))
(assert (= "K" (CharAt var24 293)))
(assert (= "P" (CharAt var17 798)))
(assert (= "/" (CharAt var2 428)))
(assert (= "U" (CharAt var18 42)))
(assert (= "E" (CharAt var26 498)))
(assert (= "t" (CharAt var15 11)))
(assert (= "o" (CharAt var23 716)))
(assert (= "@" (CharAt var34 621)))
(assert (= "@" (CharAt var23 741)))
(assert (= "[" (CharAt var42 400)))
(assert (= "\\" (CharAt var33 501)))
(assert (= ";" (CharAt var32 382)))
(assert (= "0" (CharAt var54 81)))
(assert (= "m" (CharAt var60 32)))
(assert (= "3" (CharAt var21 700)))
(assert (= "0" (CharAt var40 999)))
(assert (= "<" (CharAt var0 867)))
(assert (= "." (CharAt var11 146)))
(assert (= ":" (CharAt var8 667)))
(assert (= "9" (CharAt var47 753)))
(assert (= "e" (CharAt var30 118)))
(assert (= "\"" (CharAt var50 238)))
(assert (= ">" (CharAt var0 729)))
(assert (= "@" (CharAt var16 683)))
(assert (= "^" (CharAt var33 730)))
(assert (= "T" (CharAt var36 618)))
(assert (= "m" (CharAt var5 787)))
(assert (= "u" (CharAt var23 369)))
(assert (= "=" (CharAt var53 217)))
(assert (= "4" (CharAt var20 454)))
(assert (= "m" (CharAt var18 185)))
(assert (= "W" (CharAt var12 439)))
(assert (= "*" (CharAt var1 79)))
(assert (= "N" (CharAt var17 880)))
(assert (= ">" (CharAt var34 250)))
(assert (= "f" (CharAt var41 467)))
(assert (= "~" (CharAt var20 136)))
(assert (= "-" (CharAt var6 270)))
(assert (= "+" (CharAt var14 653)))
(assert (= "l" (CharAt var54 335)))
(assert (= "\\" (CharAt var37 858)))
(assert (= "E" (CharAt var26 585)))
(assert (= "L" (CharAt var22 281)))
(assert (= "+" (CharAt var51 419)))
(assert (= "e" (CharAt var37 303)))
(assert (= "x" (CharAt var44 342)))
(assert (= "\"" (CharAt var50 871)))
(assert (= "'" (CharAt var14 801)))
(assert (= "B" (CharAt var1 883)))
(assert (= "m" (CharAt var54 867)))
(assert (= "e" (CharAt var10 614)))
(assert (= "A" (CharAt var42 294)))
(assert (= "y" (CharAt var31 593)))
(assert (= "!" (CharAt var59 312)))
(assert (= "{" (CharAt var51 827)))
(assert (= "f" (CharAt var34 243)))
(assert (= "+" (CharAt var0 325)))
(assert (= "4" (CharAt var41 437)))
(assert (= "t" (CharAt var54 757)))
(assert (= "{" (CharAt var40 291)))
(assert (= "m" (CharAt var38 197)))
(assert (= "S" (CharAt var52 257)))
(assert (= "P" (CharAt var11 433)))
(assert (= "U" (CharAt var26 731)))
(assert (= "E" (CharAt var59 654)))
(assert (= "N" (CharAt var39 883)))
(assert (= "<" (CharAt var17 580)))
(assert (= "\\" (CharAt var41 456)))
(assert (= "V" (CharAt var43 646)))
(assert (= "#" (CharAt var50 201)))
(assert (= "7" (CharAt var33 682)))
(assert (= "s" (CharAt var22 903)))
(assert (= "M" (CharAt var16 39)))
(assert (= "N" (CharAt var58 405)))
(assert (= "X" (CharAt var2 373)))
(assert (= "i" (CharAt var42 549)))
(assert (= "P" (CharAt var2 2)))
(assert (= "8" (CharAt var11 31)))
(assert (= "h" (CharAt var23 425)))
(assert (= "{" (CharAt var19 638)))
(assert (= "I" (CharAt var43 978)))
(assert (= "," (CharAt var34 470)))
(assert (= "p" (CharAt var25 711)))
(assert (= "n" (CharAt var56 642)))
(assert (= "t" (CharAt var42 653)))
(assert (= "*" (CharAt var11 774)))
(assert (= "c" (CharAt var28 460)))
(assert (= "\\" (CharAt var29 813)))
(assert (= "C" (CharAt var10 406)))
(assert (= "5" (CharAt var6 755)))
(assert (= "E" (CharAt var51 283)))
(assert (= "^" (CharAt var47 897)))
(assert (= "X" (CharAt var30 819)))
(assert (= "B" (CharAt var30 11)))
(assert (= "H" (CharAt var60 10)))
(assert (= "P" (CharAt var45 569)))
(assert (= "%" (CharAt var50 421)))
(assert (= "*" (CharAt var33 363)))
(assert (= "c" (CharAt var13 353)))
(assert (= "|" (CharAt var25 272)))
(assert (= "I" (CharAt var45 334)))
(assert (= "." (CharAt var14 895)))
(assert (= "," (CharAt var36 306)))
(assert (= "~" (CharAt var40 397)))
(assert (= "M" (CharAt var50 904)))
(assert (= "B" (CharAt var51 447)))
(assert (= "U" (CharAt var25 544)))
(assert (= "P" (CharAt var9 826)))
(assert (= "t" (CharAt var23 707)))
(assert (= "7" (CharAt var0 352)))
(assert (= ">" (CharAt var44 11)))
(assert (= "%" (CharAt var41 489)))
(assert (= "E" (CharAt var14 472)))
(assert (= "@" (CharAt var32 155)))
(assert (= "T" (CharAt var1 509)))
(assert (= "3" (CharAt var45 846)))
(assert (= "S" (CharAt var17 787)))
(assert (= "h" (CharAt var10 157)))
(assert (= "%" (CharAt var30 94)))
(assert (= "H" (CharAt var45 876)))
(assert (= "G" (CharAt var52 567)))
(assert (= "5" (CharAt var51 147)))
(assert (= "V" (CharAt var40 802)))
(assert (= "t" (CharAt var17 493)))
(assert (= "^" (CharAt var26 946)))
(assert (= "M" (CharAt var18 591)))
(assert (= "8" (CharAt var31 683)))
(assert (= "F" (CharAt var40 640)))
(assert (= "6" (CharAt var21 323)))
(assert (= "~" (CharAt var22 727)))
(assert (= "(" (CharAt var3 994)))
(assert (= "G" (CharAt var37 516)))
(assert (= "8" (CharAt var4 809)))
(assert (= "x" (CharAt var23 54)))
(assert (= "?" (CharAt var59 969)))
(assert (= "v" (CharAt var58 876)))
(assert (= "X" (CharAt var58 569)))
(assert (= "{" (CharAt var18 996)))
(assert (= "P" (CharAt var29 799)))
(assert (= "O" (CharAt var50 617)))
(assert (= "3" (CharAt var35 8)))
(assert (= "e" (CharAt var14 125)))
(assert (= "p" (CharAt var3 647)))
(assert (= "b" (CharAt var7 400)))
(assert (= "/" (CharAt var14 468)))
(assert (= "v" (CharAt var0 207)))
(assert (= "e" (CharAt var25 266)))
(assert (= "l" (CharAt var32 297)))
(assert (= "b" (CharAt var36 290)))
(assert (= "N" (CharAt var5 628)))
(assert (= "z" (CharAt var54 410)))
(assert (= ")" (CharAt var38 713)))
(assert (= "F" (CharAt var44 129)))
(assert (= "d" (CharAt var56 12)))
(assert (= "6" (CharAt var58 650)))
(assert (= "|" (CharAt var32 49)))
(assert (= "L" (CharAt var37 141)))
(assert (= "N" (CharAt var33 125)))
(assert (= "w" (CharAt var44 582)))
(assert (= "-" (CharAt var24 740)))
(assert (= "|" (CharAt var30 347)))
(assert (= "n" (CharAt var40 129)))
(assert (= "9" (CharAt var9 172)))
(assert (= "/" (CharAt var13 106)))
(assert (= "2" (CharAt var34 688)))
(assert (= "/" (CharAt var43 26)))
(assert (= "m" (CharAt var44 235)))
(assert (= "+" (CharAt var34 276)))
(assert (= "x" (CharAt var23 810)))
(assert (= "P" (CharAt var33 380)))
(assert (= "T" (CharAt var10 312)))
(assert (= "Z" (CharAt var29 800)))
(assert (= "'" (CharAt var55 869)))
(assert (= "X" (CharAt var48 710)))
(assert (= "w" (CharAt var12 730)))
(assert (= "A" (CharAt var58 346)))
(assert (= "E" (CharAt var58 618)))
(assert (= "S" (CharAt var32 462)))
(assert (= "N" (CharAt var22 955)))
(assert (= "<" (CharAt var1 456)))
(assert (= "$" (CharAt var3 886)))
(assert (= "+" (CharAt var41 671)))
(assert (= "I" (CharAt var41 384)))
(assert (= "V" (CharAt var45 696)))
(assert (= "h" (CharAt var18 164)))
(assert (= "#" (CharAt var34 831)))
(assert (= ";" (CharAt var29 568)))
(assert (= ")" (CharAt var25 398)))
(assert (= "c" (CharAt var2 491)))
(assert (= "w" (CharAt var22 912)))
(assert (= "z" (CharAt var12 335)))
(assert (= "W" (CharAt var34 870)))
(assert (= "a" (CharAt var41 599)))
(assert (= "." (CharAt var52 270)))
(assert (= "L" (CharAt var36 800)))
(assert (= "P" (CharAt var14 884)))
(assert (= "," (CharAt var24 707)))
(assert (= "c" (CharAt var26 925)))
(assert (= "S" (CharAt var11 405)))
(assert (= ";" (CharAt var55 551)))
(assert (= "d" (CharAt var15 490)))
(assert (= "g" (CharAt var20 720)))
(assert (= "*" (CharAt var10 192)))
(assert (= "7" (CharAt var50 350)))
(assert (= "8" (CharAt var57 924)))
(assert (= "&" (CharAt var41 316)))
(assert (= "|" (CharAt var39 910)))
(assert (= "S" (CharAt var39 547)))
(assert (= "C" (CharAt var43 279)))
(assert (= "f" (CharAt var41 198)))
(assert (= "%" (CharAt var12 933)))
(assert (= "~" (CharAt var10 251)))
(assert (= "A" (CharAt var18 510)))
(assert (= "d" (CharAt var25 695)))
(assert (= "<" (CharAt var3 944)))
(assert (= "8" (CharAt var59 208)))
(assert (= "y" (CharAt var21 51)))
(assert (= "~" (CharAt var9 954)))
(assert (= "!" (CharAt var6 167)))
(assert (= "I" (CharAt var59 897)))
(assert (= "(" (CharAt var8 731)))
(assert (= "N" (CharAt var45 495)))
(assert (= "&" (CharAt var56 902)))
(assert (= "F" (CharAt var12 894)))
(assert (= "y" (CharAt var37 780)))
(assert (= "w" (CharAt var10 891)))
(assert (= "*" (CharAt var16 940)))
(assert (= "m" (CharAt var50 453)))
(assert (= "{" (CharAt var29 352)))
(assert (= "|" (CharAt var19 492)))
(assert (= "?" (CharAt var20 972)))
(assert (= "q" (CharAt var12 857)))
(assert (= "-" (CharAt var56 494)))
(assert (= "n" (CharAt var12 704)))
(assert (= "C" (CharAt var28 583)))
(assert (= "_" (CharAt var38 43)))
(assert (= "=" (CharAt var7 229)))
(assert (= "O" (CharAt var15 332)))
(assert (= "r" (CharAt var44 96)))
(assert (= "4" (CharAt var47 151)))
(assert (= "?" (CharAt var34 147)))
(assert (= "p" (CharAt var51 831)))
(assert (= "a" (CharAt var48 423)))
(assert (= "," (CharAt var10 400)))
(assert (= "a" (CharAt var4 405)))
(assert (= "2" (CharAt var27 149)))
(assert (= "E" (CharAt var28 729)))
(assert (= "e" (CharAt var58 947)))
(assert (= "V" (CharAt var37 645)))
(assert (= "l" (CharAt var15 457)))
(assert (= "-" (CharAt var26 553)))
(assert (= "Y" (CharAt var47 61)))
(assert (= "S" (CharAt var6 217)))
(assert (= "_" (CharAt var25 234)))
(assert (= "p" (CharAt var47 934)))
(assert (= "G" (CharAt var31 606)))
(assert (= "b" (CharAt var46 940)))
(assert (= "n" (CharAt var12 917)))
(assert (= "(" (CharAt var20 361)))
(assert (= ">" (CharAt var31 893)))
(assert (= "." (CharAt var60 818)))
(assert (= ")" (CharAt var44 886)))
(assert (= "s" (CharAt var1 866)))
(assert (= "s" (CharAt var38 824)))
(assert (= ":" (CharAt var16 434)))
(assert (= "]" (CharAt var47 741)))
(assert (= "`" (CharAt var19 152)))
(assert (= "&" (CharAt var7 200)))
(assert (= "D" (CharAt var54 766)))
(assert (= "b" (CharAt var21 277)))
(assert (= "+" (CharAt var30 483)))
(assert (= "`" (CharAt var29 107)))
(assert (= "C" (CharAt var47 855)))
(assert (= "V" (CharAt var6 261)))
(assert (= "\"" (CharAt var54 22)))
(assert (= "o" (CharAt var57 864)))
(assert (= "s" (CharAt var16 481)))
(assert (= "L" (CharAt var48 418)))
(assert (= "g" (CharAt var10 248)))
(assert (= "E" (CharAt var40 720)))
(assert (= "?" (CharAt var28 83)))
(assert (= "v" (CharAt var8 569)))
(assert (= "=" (CharAt var49 422)))
(assert (= "Y" (CharAt var56 516)))
(assert (= "]" (CharAt var14 642)))
(assert (= "." (CharAt var10 381)))
(assert (= ":" (CharAt var15 89)))
(assert (= "N" (CharAt var43 57)))
(assert (= "o" (CharAt var23 79)))
(assert (= "z" (CharAt var17 106)))
(assert (= "h" (CharAt var54 236)))
(assert (= "#" (CharAt var2 37)))
(assert (= "T" (CharAt var43 698)))
(assert (= "g" (CharAt var57 874)))
(assert (= "L" (CharAt var23 355)))
(assert (= "w" (CharAt var13 620)))
(assert (= "p" (CharAt var0 366)))
(assert (= "q" (CharAt var22 59)))
(assert (= "H" (CharAt var7 13)))
(assert (= "d" (CharAt var13 101)))
(assert (= "b" (CharAt var6 462)))
(assert (= "5" (CharAt var47 369)))
(assert (= "Z" (CharAt var53 347)))
(assert (= "v" (CharAt var35 550)))
(assert (= "L" (CharAt var37 582)))
(assert (= "N" (CharAt var53 498)))
(assert (= "D" (CharAt var2 985)))
(assert (= "H" (CharAt var17 293)))
(assert (= "=" (CharAt var32 581)))
(assert (= "l" (CharAt var30 553)))
(assert (= "i" (CharAt var40 72)))
(assert (= "W" (CharAt var42 783)))
(assert (= "[" (CharAt var34 931)))
(assert (= "M" (CharAt var49 594)))
(assert (= "C" (CharAt var43 160)))
(assert (= "G" (CharAt var17 762)))
(assert (= "," (CharAt var29 518)))
(assert (= "h" (CharAt var51 663)))
(assert (= "L" (CharAt var43 801)))
(assert (= "V" (CharAt var57 400)))
(assert (= "L" (CharAt var10 750)))
(assert (= "<" (CharAt var58 826)))
(assert (= "j" (CharAt var36 432)))
(assert (= "y" (CharAt var2 207)))
(assert (= "A" (CharAt var33 731)))
(assert (= "n" (CharAt var34 962)))
(assert (= "o" (CharAt var8 122)))
(assert (= "(" (CharAt var45 837)))
(assert (= "H" (CharAt var6 912)))
(assert (= "`" (CharAt var58 640)))
(assert (= "E" (CharAt var4 420)))
(assert (= "8" (CharAt var43 608)))
(assert (= "3" (CharAt var58 70)))
(assert (= ";" (CharAt var59 944)))
(assert (= "x" (CharAt var0 439)))
(assert (= "z" (CharAt var28 409)))
(assert (= "h" (CharAt var6 774)))
(assert (= "s" (CharAt var3 431)))
(assert (= "?" (CharAt var59 127)))
(assert (= "t" (CharAt var22 758)))
(assert (= "r" (CharAt var36 937)))
(assert (= "'" (CharAt var52 588)))
(assert (= "\\" (CharAt var48 127)))
(assert (= "m" (CharAt var51 644)))
(assert (= "," (CharAt var6 224)))
(assert (= "g" (CharAt var47 849)))
(assert (= "Q" (CharAt var2 372)))
(assert (= "q" (CharAt var23 655)))
(assert (= "G" (CharAt var11 632)))
(assert (= "s" (CharAt var15 96)))
(assert (= "n" (CharAt var28 177)))
(assert (= "S" (CharAt var11 570)))
(assert (= ">" (CharAt var26 2)))
(assert (= "8" (CharAt var33 571)))
(assert (= "8" (CharAt var10 454)))
(assert (= "i" (CharAt var16 924)))
(assert (= "U" (CharAt var30 479)))
(assert (= "1" (CharAt var47 896)))
(assert (= "q" (CharAt var38 80)))
(assert (= "r" (CharAt var32 68)))
(assert (= "H" (CharAt var34 291)))
(assert (= "1" (CharAt var5 253)))
(assert (= "q" (CharAt var29 853)))
(assert (= "#" (CharAt var46 391)))
(assert (= "," (CharAt var41 385)))
(assert (= "(" (CharAt var18 835)))
(assert (= "&" (CharAt var35 261)))
(assert (= "&" (CharAt var25 199)))
(assert (= "m" (CharAt var17 179)))
(assert (= "7" (CharAt var1 763)))
(assert (= "q" (CharAt var0 378)))
(assert (= "T" (CharAt var47 688)))
(assert (= "R" (CharAt var36 87)))
(assert (= "`" (CharAt var21 801)))
(assert (= "}" (CharAt var0 399)))
(assert (= "=" (CharAt var43 923)))
(assert (= "z" (CharAt var7 889)))
(assert (= "?" (CharAt var48 964)))
(assert (= "S" (CharAt var4 345)))
(assert (= "D" (CharAt var32 585)))
(assert (= "," (CharAt var49 706)))
(assert (= "}" (CharAt var16 503)))
(assert (= "{" (CharAt var48 643)))
(assert (= "M" (CharAt var1 818)))
(assert (= "k" (CharAt var16 240)))
(assert (= "e" (CharAt var34 624)))
(assert (= "`" (CharAt var44 374)))
(assert (= ")" (CharAt var48 400)))
(assert (= ")" (CharAt var3 564)))
(assert (= "M" (CharAt var51 506)))
(assert (= "E" (CharAt var8 240)))
(assert (= "g" (CharAt var60 849)))
(assert (= "7" (CharAt var38 482)))
(assert (= "/" (CharAt var35 532)))
(assert (= "3" (CharAt var58 574)))
(assert (= "y" (CharAt var17 878)))
(assert (= "4" (CharAt var23 514)))
(assert (= ")" (CharAt var25 659)))
(assert (= "T" (CharAt var34 600)))
(assert (= "o" (CharAt var56 27)))
(assert (= "<" (CharAt var30 504)))
(assert (= "v" (CharAt var39 254)))
(assert (= "=" (CharAt var59 103)))
(assert (= "|" (CharAt var59 37)))
(assert (= "p" (CharAt var29 697)))
(assert (= "X" (CharAt var57 428)))
(assert (= "%" (CharAt var4 305)))
(assert (= "L" (CharAt var0 455)))
(assert (= "A" (CharAt var22 118)))
(assert (= "P" (CharAt var47 857)))
(assert (= "&" (CharAt var5 431)))
(assert (= "p" (CharAt var22 477)))
(assert (= "K" (CharAt var4 381)))
(assert (= "C" (CharAt var12 978)))
(assert (= "d" (CharAt var42 256)))
(assert (= "H" (CharAt var60 967)))
(assert (= "l" (CharAt var17 80)))
(assert (= "R" (CharAt var30 461)))
(assert (= "9" (CharAt var4 794)))
(assert (= "J" (CharAt var29 262)))
(assert (= "Y" (CharAt var47 990)))
(assert (= "/" (CharAt var60 986)))
(assert (= "t" (CharAt var52 674)))
(assert (= ":" (CharAt var40 683)))
(assert (= "R" (CharAt var0 594)))
(assert (= "|" (CharAt var21 672)))
(assert (= "g" (CharAt var19 537)))
(assert (= "6" (CharAt var3 409)))
(assert (= "G" (CharAt var51 378)))
(assert (= "E" (CharAt var14 614)))
(assert (= "G" (CharAt var50 410)))
(assert (= "[" (CharAt var16 14)))
(assert (= "r" (CharAt var5 623)))
(assert (= "9" (CharAt var60 621)))
(assert (= "=" (CharAt var56 471)))
(assert (= "(" (CharAt var12 435)))
(assert (= "g" (CharAt var4 43)))
(assert (= "," (CharAt var33 347)))
(assert (= "}" (CharAt var37 462)))
(assert (= "V" (CharAt var6 437)))
(assert (= ")" (CharAt var7 95)))
(assert (= "C" (CharAt var4 554)))
(assert (= "6" (CharAt var8 865)))
(assert (= "1" (CharAt var1 622)))
(assert (= "p" (CharAt var9 686)))
(assert (= "]" (CharAt var8 720)))
(assert (= "X" (CharAt var60 385)))
(assert (= "s" (CharAt var16 864)))
(assert (= "]" (CharAt var21 800)))
(assert (= "0" (CharAt var0 866)))
(assert (= "S" (CharAt var46 142)))
(assert (= "3" (CharAt var11 311)))
(assert (= "|" (CharAt var54 379)))
(assert (= "Z" (CharAt var23 734)))
(assert (= "9" (CharAt var42 98)))
(assert (= "4" (CharAt var18 595)))
(assert (= "p" (CharAt var20 770)))
(assert (= "O" (CharAt var25 80)))
(assert (= "I" (CharAt var36 429)))
(assert (= "b" (CharAt var23 556)))
(assert (= "z" (CharAt var37 745)))
(assert (= "f" (CharAt var16 324)))
(assert (= "S" (CharAt var8 47)))
(assert (= "A" (CharAt var1 664)))
(assert (= "V" (CharAt var26 148)))
(assert (= "\\" (CharAt var30 160)))
(assert (= "L" (CharAt var54 478)))
(assert (= "b" (CharAt var29 789)))
(assert (= "q" (CharAt var2 652)))
(assert (= "r" (CharAt var3 527)))
(assert (= "c" (CharAt var45 705)))
(assert (= "f" (CharAt var36 402)))
(assert (= "@" (CharAt var21 123)))
(assert (= "," (CharAt var36 525)))
(assert (= "g" (CharAt var37 777)))
(assert (= "d" (CharAt var52 490)))
(assert (= "a" (CharAt var27 192)))
(assert (= "%" (CharAt var37 387)))
(assert (= "q" (CharAt var40 320)))
(assert (= "O" (CharAt var32 187)))
(assert (= "Y" (CharAt var36 115)))
(assert (= "}" (CharAt var14 853)))
(assert (= "R" (CharAt var31 618)))
(assert (= "e" (CharAt var18 529)))
(assert (= "=" (CharAt var5 916)))
(assert (= "O" (CharAt var29 888)))
(assert (= "#" (CharAt var16 172)))
(assert (= "H" (CharAt var31 192)))
(assert (= "+" (CharAt var59 949)))
(assert (= "+" (CharAt var4 387)))
(assert (= "\\" (CharAt var49 294)))
(assert (= "q" (CharAt var17 5)))
(assert (= "4" (CharAt var15 136)))
(assert (= "[" (CharAt var11 634)))
(assert (= "u" (CharAt var39 390)))
(assert (= "," (CharAt var55 732)))
(assert (= "Y" (CharAt var21 957)))
(assert (= "S" (CharAt var45 211)))
(assert (= "U" (CharAt var9 552)))
(assert (= "y" (CharAt var17 854)))
(assert (= "D" (CharAt var40 699)))
(assert (= "R" (CharAt var19 516)))
(assert (= "g" (CharAt var49 940)))
(assert (= "4" (CharAt var59 802)))
(assert (= "3" (CharAt var5 297)))
(assert (= "g" (CharAt var19 843)))
(assert (= "D" (CharAt var12 55)))
(assert (= "E" (CharAt var30 57)))
(assert (= "e" (CharAt var11 504)))
(assert (= "#" (CharAt var50 305)))
(assert (= "W" (CharAt var51 544)))
(assert (= "\\" (CharAt var12 890)))
(assert (= "!" (CharAt var35 580)))
(assert (= "*" (CharAt var23 310)))
(assert (= "g" (CharAt var43 402)))
(assert (= "i" (CharAt var35 581)))
(assert (= "l" (CharAt var45 330)))
(assert (= "@" (CharAt var54 310)))
(assert (= "2" (CharAt var59 693)))
(assert (= "I" (CharAt var58 629)))
(assert (= "z" (CharAt var25 29)))
(assert (= "/" (CharAt var59 72)))
(assert (= "`" (CharAt var30 458)))
(assert (= "k" (CharAt var10 208)))
(assert (= "5" (CharAt var35 844)))
(assert (= "?" (CharAt var4 729)))
(assert (= "Y" (CharAt var45 957)))
(assert (= "s" (CharAt var30 971)))
(assert (= "D" (CharAt var16 298)))
(assert (= "l" (CharAt var2 882)))
(assert (= "n" (CharAt var25 429)))
(assert (= "M" (CharAt var1 10)))
(assert (= "p" (CharAt var7 85)))
(assert (= "1" (CharAt var41 8)))
(assert (= "H" (CharAt var22 569)))
(assert (= "L" (CharAt var12 568)))
(assert (= "\"" (CharAt var53 552)))
(assert (= "~" (CharAt var30 19)))
(assert (= ":" (CharAt var37 525)))
(assert (= "^" (CharAt var21 934)))
(assert (= "B" (CharAt var0 3)))
(assert (= "(" (CharAt var20 775)))
(assert (= "L" (CharAt var31 58)))
(assert (= "]" (CharAt var39 125)))
(assert (= "y" (CharAt var58 177)))
(assert (= "%" (CharAt var27 536)))
(assert (= "," (CharAt var26 922)))
(assert (= "'" (CharAt var38 873)))
(assert (= "o" (CharAt var43 715)))
(assert (= "(" (CharAt var11 591)))
(assert (= "d" (CharAt var56 864)))
(assert (= ":" (CharAt var11 42)))
(assert (= ";" (CharAt var42 899)))
(assert (= "H" (CharAt var2 388)))
(assert (= "=" (CharAt var30 453)))
(assert (= "w" (CharAt var48 425)))
(assert (= "5" (CharAt var27 785)))
(assert (= "h" (CharAt var59 707)))
(check-sat)